# DREIDING forcefield based on the paper from Mayo et al., J. Phys. Chem, 1990 
# (https://doi.org/10.1021/j100389a010)
# This forcefield was produced from python scripts utilising coefficients
# found in the original DREIDING paper.
##############################################################################
# Developed by: Matthew Bone
# Last Updated: 4/12/2020
# Updated by: Matthew Bone
#
# Contact Details:
# Bristol Composites Institute (BCI)
# Department of Aerospace Engineering - University of Bristol
# Queen's Building - University Walk
# Bristol, BS8 1TR
# U.K.
# Email - matthew.bone@bristol.ac.uk
##############################################################################


DREIDING {

  # DREIDING LAMMPS Settings:
  # Varients are possible, however this data is setup for these conditions

  write_once("In Init") {
    units           real
    atom_style      full
    bond_style      harmonic
    angle_style     harmonic
    dihedral_style  charmm
    improper_style  umbrella
	special_bonds   dreiding	

	# Coefficients in non-bonding are just as an example
    pair_style      hybrid/overlay hbond/dreiding/lj 4 6 6.5 90 lj/cut/coul/long 10.0
	kspace_style	ewald 0.0001

    dielectric      1.0
   
  } # End of init

  # Masses Data by Type
  write_once("Data Masses") {
	@atom:H	1.008
	@atom:H_HB	1.008
	@atom:C_3	12.011
	@atom:C_34	16.043
	@atom:C_33	15.035
	@atom:C_32	14.027
	@atom:C_31	13.019
	@atom:C_R	12.011
	@atom:C_R1	13.019
	@atom:C_R_b1	12.011
	@atom:C_R1_b1	13.019
	@atom:C_2	12.011
	@atom:C_2_b1	12.011
	@atom:C_2_b2	12.011
	@atom:C_1	12.011
	@atom:C_1_b1	12.011
	@atom:N_3	14.007
	@atom:N_3_ha	14.007
	@atom:N_3_hd	14.007
	@atom:N_R_d1	14.007
	@atom:N_R_d1_ha	14.007
	@atom:N_R_d2	14.007
	@atom:N_R_d2_ha	14.007
	@atom:N_R_d2_hd	14.007
	@atom:N_R_b1_d2	14.007
	@atom:N_R_b1_d2_ha	14.007
	@atom:N_R_b1_d2_hd	14.007
	@atom:N_2_d1	14.007
	@atom:N_2_d1_ha	14.007
	@atom:N_2_d1_hd	14.007
	@atom:N_2_b1_d1	14.007
	@atom:N_2_b1_d1_ha	14.007
	@atom:N_2_b2_d1	14.007
	@atom:N_2_b2_d1_ha	14.007
	@atom:N_2_d2	14.007
	@atom:N_2_d2_hd	14.007
	@atom:N_2_d2_ha	14.007
	@atom:N_2_b1_d2	14.007
	@atom:N_2_b1_d2_hd	14.007
	@atom:N_2_b1_d2_ha	14.007
	@atom:N_2_b2_d2	14.007
	@atom:N_2_b2_d2_hd	14.007
	@atom:N_2_b2_d2_ha	14.007
	@atom:N_1	14.007
	@atom:N_1_ha	14.007
	@atom:O_3	15.999
	@atom:O_3_hd	15.999
	@atom:O_3_ha	15.999
	@atom:O_R	15.999
	@atom:O_R_ha	15.999
	@atom:O_2	15.999
	@atom:O_2_ha	15.999
	@atom:O_2_b1	15.999
	@atom:O_2_b1_ha	15.999
	@atom:O_2_b1_hd	15.999
	@atom:O_2_b2	15.999
	@atom:O_2_b2_ha	15.999
	@atom:O_1	15.999
	@atom:O_1_ha	15.999
	@atom:H_B	1.008
	@atom:B_3	10.81
	@atom:B_2_d1	10.81
	@atom:B_2_d2	10.81
	@atom:B_2_b1_d1	10.81
	@atom:B_2_b1_d2	10.81
	@atom:B_2_b2_d1	10.81
	@atom:B_2_b2_d2	10.81
	@atom:F	18.998
	@atom:F_hd	18.998
	@atom:F_ha	18.998
	@atom:Cl	34.45
	@atom:Br	79.904
	@atom:I	126.904
	@atom:Al_3_d1	26.982
	@atom:Al_3_d2	26.982
	@atom:Si_3	28.085
	@atom:P_3_d2	30.974
	@atom:P_3_d3	30.974
	@atom:P_3_d4	30.974
	@atom:S_3	32.06
	@atom:Ga_3	69.723
	@atom:Ge_3_d1	72.63
	@atom:Ge_3_d2	72.63
	@atom:Ge_3_d3	72.63
	@atom:As_3_d1	74.922
	@atom:As_3_d2	74.922
	@atom:As_3_d3	74.922
	@atom:As_3_d4	74.922
	@atom:Se_3_d1	78.971
	@atom:Se_3_d2	78.971
	@atom:Se_3_d3	78.971
	@atom:Se_3_d5	78.971
	@atom:In_3_d1	114.818
	@atom:In_3_d2	114.818
	@atom:Sn_3_d2	118.71
	@atom:Sn_3_d3	118.71
	@atom:Sb_3_d2	121.76
	@atom:Sb_3_d3	121.76
	@atom:Sb_3_d4	121.76
	@atom:Te_3_d1	127.6
	@atom:Te_3_d2	127.6
	@atom:Te_3_d3	127.6
	@atom:Te_3_d5	127.6
	@atom:Na	22.99
	@atom:Ca	40.078
	@atom:Fe	55.845
	@atom:Zn	65.38
  } # End of Masses Data by Type

  # 2-body (non-bonded) interactions:

  write_once("In Settings") {
	pair_coeff  @atom:H  @atom:H lj/cut/coul/long 0.0152 2.846421
	pair_coeff  @atom:H_HB  @atom:H lj/cut/coul/long 0.00123288 2.846421
	pair_coeff  @atom:H_HB  @atom:H_HB lj/cut/coul/long 0.0001 2.846421
	pair_coeff  @atom:H_B  @atom:H lj/cut/coul/long 0.0152 2.846421
	pair_coeff  @atom:H_B  @atom:H_HB lj/cut/coul/long 0.00123288 2.846421
	pair_coeff  @atom:H_B  @atom:H_B lj/cut/coul/long 0.0152 2.846421
	pair_coeff  @atom:B*  @atom:H lj/cut/coul/long 0.038 3.213967
	pair_coeff  @atom:B*  @atom:H_HB lj/cut/coul/long 0.00308221 3.213967
	pair_coeff  @atom:B*  @atom:H_B lj/cut/coul/long 0.038 3.213967
	pair_coeff  @atom:B*  @atom:B* lj/cut/coul/long 0.095 3.581513
	pair_coeff  @atom:C*  @atom:H lj/cut/coul/long 0.03801999 3.1597055
	pair_coeff  @atom:C*  @atom:H_HB lj/cut/coul/long 0.00308383 3.1597055
	pair_coeff  @atom:C*  @atom:H_B lj/cut/coul/long 0.03801999 3.1597055
	pair_coeff  @atom:C*  @atom:B* lj/cut/coul/long 0.09504999 3.5272515
	pair_coeff  @atom:C*  @atom:C* lj/cut/coul/long 0.0951 3.47299
	pair_coeff  @atom:N*  @atom:H lj/cut/coul/long 0.03429985 3.0544905
	pair_coeff  @atom:N*  @atom:H_HB lj/cut/coul/long 0.00278209 3.0544905
	pair_coeff  @atom:N*  @atom:H_B lj/cut/coul/long 0.03429985 3.0544905
	pair_coeff  @atom:N*  @atom:B* lj/cut/coul/long 0.08574964 3.4220365
	pair_coeff  @atom:N*  @atom:C* lj/cut/coul/long 0.08579476 3.367775
	pair_coeff  @atom:N*  @atom:N* lj/cut/coul/long 0.0774 3.26256
	pair_coeff  @atom:O*  @atom:H lj/cut/coul/long 0.03813974 2.939787
	pair_coeff  @atom:O*  @atom:H_HB lj/cut/coul/long 0.00309354 2.939787
	pair_coeff  @atom:O*  @atom:H_B lj/cut/coul/long 0.03813974 2.939787
	pair_coeff  @atom:O*  @atom:B* lj/cut/coul/long 0.09534936 3.307333
	pair_coeff  @atom:O*  @atom:C* lj/cut/coul/long 0.09539953 3.2530715
	pair_coeff  @atom:O*  @atom:N* lj/cut/coul/long 0.08606498 3.1478565
	pair_coeff  @atom:O*  @atom:O* lj/cut/coul/long 0.0957 3.033153
	pair_coeff  @atom:F*  @atom:H lj/cut/coul/long 0.03319639 2.9698105
	pair_coeff  @atom:F*  @atom:H_HB lj/cut/coul/long 0.00269258 2.9698105
	pair_coeff  @atom:F*  @atom:H_B lj/cut/coul/long 0.03319639 2.9698105
	pair_coeff  @atom:F*  @atom:B* lj/cut/coul/long 0.08299096 3.3373565
	pair_coeff  @atom:F*  @atom:C* lj/cut/coul/long 0.08303463 3.283095
	pair_coeff  @atom:F*  @atom:N* lj/cut/coul/long 0.07490995 3.17788
	pair_coeff  @atom:F*  @atom:O* lj/cut/coul/long 0.08329616 3.0631765
	pair_coeff  @atom:F*  @atom:F* lj/cut/coul/long 0.0725 3.0932
	pair_coeff  @atom:Al*  @atom:H lj/cut/coul/long 0.06864401 3.369824
	pair_coeff  @atom:Al*  @atom:H_HB lj/cut/coul/long 0.00556776 3.369824
	pair_coeff  @atom:Al*  @atom:H_B lj/cut/coul/long 0.06864401 3.369824
	pair_coeff  @atom:Al*  @atom:B* lj/cut/coul/long 0.17161002 3.73737
	pair_coeff  @atom:Al*  @atom:C* lj/cut/coul/long 0.17170032 3.6831085
	pair_coeff  @atom:Al*  @atom:N* lj/cut/coul/long 0.15489997 3.5778935
	pair_coeff  @atom:Al*  @atom:O* lj/cut/coul/long 0.17224111 3.46319
	pair_coeff  @atom:Al*  @atom:F* lj/cut/coul/long 0.14991664 3.4932135
	pair_coeff  @atom:Al*  @atom:Al* lj/cut/coul/long 0.31 3.893227
	pair_coeff  @atom:Si*  @atom:H lj/cut/coul/long 0.06864401 3.3252795
	pair_coeff  @atom:Si*  @atom:H_HB lj/cut/coul/long 0.00556776 3.3252795
	pair_coeff  @atom:Si*  @atom:H_B lj/cut/coul/long 0.06864401 3.3252795
	pair_coeff  @atom:Si*  @atom:B* lj/cut/coul/long 0.17161002 3.6928255
	pair_coeff  @atom:Si*  @atom:C* lj/cut/coul/long 0.17170032 3.638564
	pair_coeff  @atom:Si*  @atom:N* lj/cut/coul/long 0.15489997 3.533349
	pair_coeff  @atom:Si*  @atom:O* lj/cut/coul/long 0.17224111 3.4186455
	pair_coeff  @atom:Si*  @atom:F* lj/cut/coul/long 0.14991664 3.448669
	pair_coeff  @atom:Si*  @atom:Al* lj/cut/coul/long 0.31 3.8486825
	pair_coeff  @atom:Si*  @atom:Si* lj/cut/coul/long 0.31 3.804138
	pair_coeff  @atom:P*  @atom:H lj/cut/coul/long 0.06974238 3.2718255
	pair_coeff  @atom:P*  @atom:H_HB lj/cut/coul/long 0.00565685 3.2718255
	pair_coeff  @atom:P*  @atom:H_B lj/cut/coul/long 0.06974238 3.2718255
	pair_coeff  @atom:P*  @atom:B* lj/cut/coul/long 0.17435596 3.6393715
	pair_coeff  @atom:P*  @atom:C* lj/cut/coul/long 0.1744477 3.58511
	pair_coeff  @atom:P*  @atom:N* lj/cut/coul/long 0.15737852 3.479895
	pair_coeff  @atom:P*  @atom:O* lj/cut/coul/long 0.17499714 3.3651915
	pair_coeff  @atom:P*  @atom:F* lj/cut/coul/long 0.15231546 3.395215
	pair_coeff  @atom:P*  @atom:Al* lj/cut/coul/long 0.31496031 3.7952285
	pair_coeff  @atom:P*  @atom:Si* lj/cut/coul/long 0.31496031 3.750684
	pair_coeff  @atom:P*  @atom:P* lj/cut/coul/long 0.32 3.69723
	pair_coeff  @atom:S*  @atom:H lj/cut/coul/long 0.06974238 3.2183715
	pair_coeff  @atom:S*  @atom:H_HB lj/cut/coul/long 0.00565685 3.2183715
	pair_coeff  @atom:S*  @atom:H_B lj/cut/coul/long 0.06974238 3.2183715
	pair_coeff  @atom:S*  @atom:B* lj/cut/coul/long 0.17435596 3.5859175
	pair_coeff  @atom:S*  @atom:C* lj/cut/coul/long 0.1744477 3.531656
	pair_coeff  @atom:S*  @atom:N* lj/cut/coul/long 0.15737852 3.426441
	pair_coeff  @atom:S*  @atom:O* lj/cut/coul/long 0.17499714 3.3117375
	pair_coeff  @atom:S*  @atom:F* lj/cut/coul/long 0.15231546 3.341761
	pair_coeff  @atom:S*  @atom:Al* lj/cut/coul/long 0.31496031 3.7417745
	pair_coeff  @atom:S*  @atom:Si* lj/cut/coul/long 0.31496031 3.69723
	pair_coeff  @atom:S*  @atom:P* lj/cut/coul/long 0.32 3.643776
	pair_coeff  @atom:S*  @atom:S* lj/cut/coul/long 0.32 3.590322
	pair_coeff  @atom:Cl  @atom:H lj/cut/coul/long 0.06562134 3.182869
	pair_coeff  @atom:Cl  @atom:H_HB lj/cut/coul/long 0.00532259 3.182869
	pair_coeff  @atom:Cl  @atom:H_B lj/cut/coul/long 0.06562134 3.182869
	pair_coeff  @atom:Cl  @atom:B* lj/cut/coul/long 0.16405334 3.550415
	pair_coeff  @atom:Cl  @atom:C* lj/cut/coul/long 0.16413967 3.4961535
	pair_coeff  @atom:Cl  @atom:N* lj/cut/coul/long 0.1480791 3.3909385
	pair_coeff  @atom:Cl  @atom:O* lj/cut/coul/long 0.16465664 3.276235
	pair_coeff  @atom:Cl  @atom:F* lj/cut/coul/long 0.14331521 3.3062585
	pair_coeff  @atom:Cl  @atom:Al* lj/cut/coul/long 0.29634946 3.706272
	pair_coeff  @atom:Cl  @atom:Si* lj/cut/coul/long 0.29634946 3.6617275
	pair_coeff  @atom:Cl  @atom:P* lj/cut/coul/long 0.30109135 3.6082735
	pair_coeff  @atom:Cl  @atom:S* lj/cut/coul/long 0.30109135 3.5548195
	pair_coeff  @atom:Cl  @atom:Cl lj/cut/coul/long 0.2833 3.519317
	pair_coeff  @atom:Ga*  @atom:H lj/cut/coul/long 0.07797435 3.378733
	pair_coeff  @atom:Ga*  @atom:H_HB lj/cut/coul/long 0.00632456 3.378733
	pair_coeff  @atom:Ga*  @atom:H_B lj/cut/coul/long 0.07797435 3.378733
	pair_coeff  @atom:Ga*  @atom:B* lj/cut/coul/long 0.19493589 3.746279
	pair_coeff  @atom:Ga*  @atom:C* lj/cut/coul/long 0.19503846 3.6920175
	pair_coeff  @atom:Ga*  @atom:N* lj/cut/coul/long 0.17595454 3.5868025
	pair_coeff  @atom:Ga*  @atom:O* lj/cut/coul/long 0.19565275 3.472099
	pair_coeff  @atom:Ga*  @atom:F* lj/cut/coul/long 0.17029386 3.5021225
	pair_coeff  @atom:Ga*  @atom:Al* lj/cut/coul/long 0.35213634 3.902136
	pair_coeff  @atom:Ga*  @atom:Si* lj/cut/coul/long 0.35213634 3.8575915
	pair_coeff  @atom:Ga*  @atom:P* lj/cut/coul/long 0.35777088 3.8041375
	pair_coeff  @atom:Ga*  @atom:S* lj/cut/coul/long 0.35777088 3.7506835
	pair_coeff  @atom:Ga*  @atom:Cl lj/cut/coul/long 0.33663036 3.715181
	pair_coeff  @atom:Ga*  @atom:Ga* lj/cut/coul/long 0.4 3.911045
	pair_coeff  @atom:Ge*  @atom:H lj/cut/coul/long 0.07797435 3.3252795
	pair_coeff  @atom:Ge*  @atom:H_HB lj/cut/coul/long 0.00632456 3.3252795
	pair_coeff  @atom:Ge*  @atom:H_B lj/cut/coul/long 0.07797435 3.3252795
	pair_coeff  @atom:Ge*  @atom:B* lj/cut/coul/long 0.19493589 3.6928255
	pair_coeff  @atom:Ge*  @atom:C* lj/cut/coul/long 0.19503846 3.638564
	pair_coeff  @atom:Ge*  @atom:N* lj/cut/coul/long 0.17595454 3.533349
	pair_coeff  @atom:Ge*  @atom:O* lj/cut/coul/long 0.19565275 3.4186455
	pair_coeff  @atom:Ge*  @atom:F* lj/cut/coul/long 0.17029386 3.448669
	pair_coeff  @atom:Ge*  @atom:Al* lj/cut/coul/long 0.35213634 3.8486825
	pair_coeff  @atom:Ge*  @atom:Si* lj/cut/coul/long 0.35213634 3.804138
	pair_coeff  @atom:Ge*  @atom:P* lj/cut/coul/long 0.35777088 3.750684
	pair_coeff  @atom:Ge*  @atom:S* lj/cut/coul/long 0.35777088 3.69723
	pair_coeff  @atom:Ge*  @atom:Cl lj/cut/coul/long 0.33663036 3.6617275
	pair_coeff  @atom:Ge*  @atom:Ga* lj/cut/coul/long 0.4 3.8575915
	pair_coeff  @atom:Ge*  @atom:Ge* lj/cut/coul/long 0.4 3.804138
	pair_coeff  @atom:As*  @atom:H lj/cut/coul/long 0.07894302 3.2718255
	pair_coeff  @atom:As*  @atom:H_HB lj/cut/coul/long 0.00640312 3.2718255
	pair_coeff  @atom:As*  @atom:H_B lj/cut/coul/long 0.07894302 3.2718255
	pair_coeff  @atom:As*  @atom:B* lj/cut/coul/long 0.19735754 3.6393715
	pair_coeff  @atom:As*  @atom:C* lj/cut/coul/long 0.19746139 3.58511
	pair_coeff  @atom:As*  @atom:N* lj/cut/coul/long 0.17814039 3.479895
	pair_coeff  @atom:As*  @atom:O* lj/cut/coul/long 0.19808332 3.3651915
	pair_coeff  @atom:As*  @atom:F* lj/cut/coul/long 0.1724094 3.395215
	pair_coeff  @atom:As*  @atom:Al* lj/cut/coul/long 0.35651087 3.7952285
	pair_coeff  @atom:As*  @atom:Si* lj/cut/coul/long 0.35651087 3.750684
	pair_coeff  @atom:As*  @atom:P* lj/cut/coul/long 0.36221541 3.69723
	pair_coeff  @atom:As*  @atom:S* lj/cut/coul/long 0.36221541 3.643776
	pair_coeff  @atom:As*  @atom:Cl lj/cut/coul/long 0.34081227 3.6082735
	pair_coeff  @atom:As*  @atom:Ga* lj/cut/coul/long 0.40496913 3.8041375
	pair_coeff  @atom:As*  @atom:Ge* lj/cut/coul/long 0.40496913 3.750684
	pair_coeff  @atom:As*  @atom:As* lj/cut/coul/long 0.41 3.69723
	pair_coeff  @atom:Se*  @atom:H lj/cut/coul/long 0.08084553 3.218371
	pair_coeff  @atom:Se*  @atom:H_HB lj/cut/coul/long 0.00655744 3.218371
	pair_coeff  @atom:Se*  @atom:H_B lj/cut/coul/long 0.08084553 3.218371
	pair_coeff  @atom:Se*  @atom:B* lj/cut/coul/long 0.20211383 3.585917
	pair_coeff  @atom:Se*  @atom:C* lj/cut/coul/long 0.20222018 3.5316555
	pair_coeff  @atom:Se*  @atom:N* lj/cut/coul/long 0.18243355 3.4264405
	pair_coeff  @atom:Se*  @atom:O* lj/cut/coul/long 0.20285709 3.311737
	pair_coeff  @atom:Se*  @atom:F* lj/cut/coul/long 0.17656444 3.3417605
	pair_coeff  @atom:Se*  @atom:Al* lj/cut/coul/long 0.36510273 3.741774
	pair_coeff  @atom:Se*  @atom:Si* lj/cut/coul/long 0.36510273 3.6972295
	pair_coeff  @atom:Se*  @atom:P* lj/cut/coul/long 0.37094474 3.6437755
	pair_coeff  @atom:Se*  @atom:S* lj/cut/coul/long 0.37094474 3.5903215
	pair_coeff  @atom:Se*  @atom:Cl lj/cut/coul/long 0.34902579 3.554819
	pair_coeff  @atom:Se*  @atom:Ga* lj/cut/coul/long 0.41472883 3.750683
	pair_coeff  @atom:Se*  @atom:Ge* lj/cut/coul/long 0.41472883 3.6972295
	pair_coeff  @atom:Se*  @atom:As* lj/cut/coul/long 0.41988094 3.6437755
	pair_coeff  @atom:Se*  @atom:Se* lj/cut/coul/long 0.43 3.590321
	pair_coeff  @atom:Br  @atom:H lj/cut/coul/long 0.07499333 3.1827355
	pair_coeff  @atom:Br  @atom:H_HB lj/cut/coul/long 0.00608276 3.1827355
	pair_coeff  @atom:Br  @atom:H_B lj/cut/coul/long 0.07499333 3.1827355
	pair_coeff  @atom:Br  @atom:B* lj/cut/coul/long 0.18748333 3.5502815
	pair_coeff  @atom:Br  @atom:C* lj/cut/coul/long 0.18758198 3.49602
	pair_coeff  @atom:Br  @atom:N* lj/cut/coul/long 0.16922766 3.390805
	pair_coeff  @atom:Br  @atom:O* lj/cut/coul/long 0.18817279 3.2761015
	pair_coeff  @atom:Br  @atom:F* lj/cut/coul/long 0.16378339 3.306125
	pair_coeff  @atom:Br  @atom:Al* lj/cut/coul/long 0.33867388 3.7061385
	pair_coeff  @atom:Br  @atom:Si* lj/cut/coul/long 0.33867388 3.661594
	pair_coeff  @atom:Br  @atom:P* lj/cut/coul/long 0.34409301 3.60814
	pair_coeff  @atom:Br  @atom:S* lj/cut/coul/long 0.34409301 3.554686
	pair_coeff  @atom:Br  @atom:Cl lj/cut/coul/long 0.32376071 3.5191835
	pair_coeff  @atom:Br  @atom:Ga* lj/cut/coul/long 0.38470768 3.7150475
	pair_coeff  @atom:Br  @atom:Ge* lj/cut/coul/long 0.38470768 3.661594
	pair_coeff  @atom:Br  @atom:As* lj/cut/coul/long 0.38948684 3.60814
	pair_coeff  @atom:Br  @atom:Se* lj/cut/coul/long 0.39887341 3.5546855
	pair_coeff  @atom:Br  @atom:Br lj/cut/coul/long 0.37 3.51905
	pair_coeff  @atom:In*  @atom:H lj/cut/coul/long 0.09143304 3.467823
	pair_coeff  @atom:In*  @atom:H_HB lj/cut/coul/long 0.0074162 3.467823
	pair_coeff  @atom:In*  @atom:H_B lj/cut/coul/long 0.09143304 3.467823
	pair_coeff  @atom:In*  @atom:B* lj/cut/coul/long 0.22858259 3.835369
	pair_coeff  @atom:In*  @atom:C* lj/cut/coul/long 0.22870286 3.7811075
	pair_coeff  @atom:In*  @atom:N* lj/cut/coul/long 0.20632499 3.6758925
	pair_coeff  @atom:In*  @atom:O* lj/cut/coul/long 0.22942319 3.561189
	pair_coeff  @atom:In*  @atom:F* lj/cut/coul/long 0.19968726 3.5912125
	pair_coeff  @atom:In*  @atom:Al* lj/cut/coul/long 0.41291646 3.991226
	pair_coeff  @atom:In*  @atom:Si* lj/cut/coul/long 0.41291646 3.9466815
	pair_coeff  @atom:In*  @atom:P* lj/cut/coul/long 0.41952354 3.8932275
	pair_coeff  @atom:In*  @atom:S* lj/cut/coul/long 0.41952354 3.8397735
	pair_coeff  @atom:In*  @atom:Cl lj/cut/coul/long 0.39473409 3.804271
	pair_coeff  @atom:In*  @atom:Ga* lj/cut/coul/long 0.46904158 4.000135
	pair_coeff  @atom:In*  @atom:Ge* lj/cut/coul/long 0.46904158 3.9466815
	pair_coeff  @atom:In*  @atom:As* lj/cut/coul/long 0.4748684 3.8932275
	pair_coeff  @atom:In*  @atom:Se* lj/cut/coul/long 0.48631266 3.839773
	pair_coeff  @atom:In*  @atom:Br lj/cut/coul/long 0.45110974 3.8041375
	pair_coeff  @atom:In*  @atom:In* lj/cut/coul/long 0.55 4.089225
	pair_coeff  @atom:Sn*  @atom:H lj/cut/coul/long 0.09143304 3.414369
	pair_coeff  @atom:Sn*  @atom:H_HB lj/cut/coul/long 0.0074162 3.414369
	pair_coeff  @atom:Sn*  @atom:H_B lj/cut/coul/long 0.09143304 3.414369
	pair_coeff  @atom:Sn*  @atom:B* lj/cut/coul/long 0.22858259 3.781915
	pair_coeff  @atom:Sn*  @atom:C* lj/cut/coul/long 0.22870286 3.7276535
	pair_coeff  @atom:Sn*  @atom:N* lj/cut/coul/long 0.20632499 3.6224385
	pair_coeff  @atom:Sn*  @atom:O* lj/cut/coul/long 0.22942319 3.507735
	pair_coeff  @atom:Sn*  @atom:F* lj/cut/coul/long 0.19968726 3.5377585
	pair_coeff  @atom:Sn*  @atom:Al* lj/cut/coul/long 0.41291646 3.937772
	pair_coeff  @atom:Sn*  @atom:Si* lj/cut/coul/long 0.41291646 3.8932275
	pair_coeff  @atom:Sn*  @atom:P* lj/cut/coul/long 0.41952354 3.8397735
	pair_coeff  @atom:Sn*  @atom:S* lj/cut/coul/long 0.41952354 3.7863195
	pair_coeff  @atom:Sn*  @atom:Cl lj/cut/coul/long 0.39473409 3.750817
	pair_coeff  @atom:Sn*  @atom:Ga* lj/cut/coul/long 0.46904158 3.946681
	pair_coeff  @atom:Sn*  @atom:Ge* lj/cut/coul/long 0.46904158 3.8932275
	pair_coeff  @atom:Sn*  @atom:As* lj/cut/coul/long 0.4748684 3.8397735
	pair_coeff  @atom:Sn*  @atom:Se* lj/cut/coul/long 0.48631266 3.786319
	pair_coeff  @atom:Sn*  @atom:Br lj/cut/coul/long 0.45110974 3.7506835
	pair_coeff  @atom:Sn*  @atom:In* lj/cut/coul/long 0.55 4.035771
	pair_coeff  @atom:Sn*  @atom:Sn* lj/cut/coul/long 0.55 3.982317
	pair_coeff  @atom:Sb*  @atom:H lj/cut/coul/long 0.09143304 3.360915
	pair_coeff  @atom:Sb*  @atom:H_HB lj/cut/coul/long 0.0074162 3.360915
	pair_coeff  @atom:Sb*  @atom:H_B lj/cut/coul/long 0.09143304 3.360915
	pair_coeff  @atom:Sb*  @atom:B* lj/cut/coul/long 0.22858259 3.728461
	pair_coeff  @atom:Sb*  @atom:C* lj/cut/coul/long 0.22870286 3.6741995
	pair_coeff  @atom:Sb*  @atom:N* lj/cut/coul/long 0.20632499 3.5689845
	pair_coeff  @atom:Sb*  @atom:O* lj/cut/coul/long 0.22942319 3.454281
	pair_coeff  @atom:Sb*  @atom:F* lj/cut/coul/long 0.19968726 3.4843045
	pair_coeff  @atom:Sb*  @atom:Al* lj/cut/coul/long 0.41291646 3.884318
	pair_coeff  @atom:Sb*  @atom:Si* lj/cut/coul/long 0.41291646 3.8397735
	pair_coeff  @atom:Sb*  @atom:P* lj/cut/coul/long 0.41952354 3.7863195
	pair_coeff  @atom:Sb*  @atom:S* lj/cut/coul/long 0.41952354 3.7328655
	pair_coeff  @atom:Sb*  @atom:Cl lj/cut/coul/long 0.39473409 3.697363
	pair_coeff  @atom:Sb*  @atom:Ga* lj/cut/coul/long 0.46904158 3.893227
	pair_coeff  @atom:Sb*  @atom:Ge* lj/cut/coul/long 0.46904158 3.8397735
	pair_coeff  @atom:Sb*  @atom:As* lj/cut/coul/long 0.4748684 3.7863195
	pair_coeff  @atom:Sb*  @atom:Se* lj/cut/coul/long 0.48631266 3.732865
	pair_coeff  @atom:Sb*  @atom:Br lj/cut/coul/long 0.45110974 3.6972295
	pair_coeff  @atom:Sb*  @atom:In* lj/cut/coul/long 0.55 3.982317
	pair_coeff  @atom:Sb*  @atom:Sn* lj/cut/coul/long 0.55 3.928863
	pair_coeff  @atom:Sb*  @atom:Sb* lj/cut/coul/long 0.55 3.875409
	pair_coeff  @atom:Te*  @atom:H lj/cut/coul/long 0.09308061 3.3074615
	pair_coeff  @atom:Te*  @atom:H_HB lj/cut/coul/long 0.00754983 3.3074615
	pair_coeff  @atom:Te*  @atom:H_B lj/cut/coul/long 0.09308061 3.3074615
	pair_coeff  @atom:Te*  @atom:B* lj/cut/coul/long 0.23270153 3.6750075
	pair_coeff  @atom:Te*  @atom:C* lj/cut/coul/long 0.23282397 3.620746
	pair_coeff  @atom:Te*  @atom:N* lj/cut/coul/long 0.21004285 3.515531
	pair_coeff  @atom:Te*  @atom:O* lj/cut/coul/long 0.23355727 3.4008275
	pair_coeff  @atom:Te*  @atom:F* lj/cut/coul/long 0.20328551 3.430851
	pair_coeff  @atom:Te*  @atom:Al* lj/cut/coul/long 0.42035699 3.8308645
	pair_coeff  @atom:Te*  @atom:Si* lj/cut/coul/long 0.42035699 3.78632
	pair_coeff  @atom:Te*  @atom:P* lj/cut/coul/long 0.42708313 3.732866
	pair_coeff  @atom:Te*  @atom:S* lj/cut/coul/long 0.42708313 3.679412
	pair_coeff  @atom:Te*  @atom:Cl lj/cut/coul/long 0.40184699 3.6439095
	pair_coeff  @atom:Te*  @atom:Ga* lj/cut/coul/long 0.47749346 3.8397735
	pair_coeff  @atom:Te*  @atom:Ge* lj/cut/coul/long 0.47749346 3.78632
	pair_coeff  @atom:Te*  @atom:As* lj/cut/coul/long 0.48342528 3.732866
	pair_coeff  @atom:Te*  @atom:Se* lj/cut/coul/long 0.49507575 3.6794115
	pair_coeff  @atom:Te*  @atom:Br lj/cut/coul/long 0.4592385 3.643776
	pair_coeff  @atom:Te*  @atom:In* lj/cut/coul/long 0.55991071 3.9288635
	pair_coeff  @atom:Te*  @atom:Sn* lj/cut/coul/long 0.55991071 3.8754095
	pair_coeff  @atom:Te*  @atom:Sb* lj/cut/coul/long 0.55991071 3.8219555
	pair_coeff  @atom:Te*  @atom:Te* lj/cut/coul/long 0.57 3.768502
	pair_coeff  @atom:I  @atom:H lj/cut/coul/long 0.08804544 3.2718255
	pair_coeff  @atom:I  @atom:H_HB lj/cut/coul/long 0.00714143 3.2718255
	pair_coeff  @atom:I  @atom:H_B lj/cut/coul/long 0.08804544 3.2718255
	pair_coeff  @atom:I  @atom:B* lj/cut/coul/long 0.22011361 3.6393715
	pair_coeff  @atom:I  @atom:C* lj/cut/coul/long 0.22022943 3.58511
	pair_coeff  @atom:I  @atom:N* lj/cut/coul/long 0.19868065 3.479895
	pair_coeff  @atom:I  @atom:O* lj/cut/coul/long 0.22092306 3.3651915
	pair_coeff  @atom:I  @atom:F* lj/cut/coul/long 0.19228885 3.395215
	pair_coeff  @atom:I  @atom:Al* lj/cut/coul/long 0.39761791 3.7952285
	pair_coeff  @atom:I  @atom:Si* lj/cut/coul/long 0.39761791 3.750684
	pair_coeff  @atom:I  @atom:P* lj/cut/coul/long 0.4039802 3.69723
	pair_coeff  @atom:I  @atom:S* lj/cut/coul/long 0.4039802 3.643776
	pair_coeff  @atom:I  @atom:Cl lj/cut/coul/long 0.38010919 3.6082735
	pair_coeff  @atom:I  @atom:Ga* lj/cut/coul/long 0.45166359 3.8041375
	pair_coeff  @atom:I  @atom:Ge* lj/cut/coul/long 0.45166359 3.750684
	pair_coeff  @atom:I  @atom:As* lj/cut/coul/long 0.45727453 3.69723
	pair_coeff  @atom:I  @atom:Se* lj/cut/coul/long 0.46829478 3.6437755
	pair_coeff  @atom:I  @atom:Br lj/cut/coul/long 0.43439613 3.60814
	pair_coeff  @atom:I  @atom:In* lj/cut/coul/long 0.52962251 3.8932275
	pair_coeff  @atom:I  @atom:Sn* lj/cut/coul/long 0.52962251 3.8397735
	pair_coeff  @atom:I  @atom:Sb* lj/cut/coul/long 0.52962251 3.7863195
	pair_coeff  @atom:I  @atom:Te* lj/cut/coul/long 0.53916602 3.732866
	pair_coeff  @atom:I  @atom:I lj/cut/coul/long 0.51 3.69723
	pair_coeff  @atom:Na  @atom:H lj/cut/coul/long 0.08717798 2.8237035
	pair_coeff  @atom:Na  @atom:H_HB lj/cut/coul/long 0.00707107 2.8237035
	pair_coeff  @atom:Na  @atom:H_B lj/cut/coul/long 0.08717798 2.8237035
	pair_coeff  @atom:Na  @atom:B* lj/cut/coul/long 0.21794495 3.1912495
	pair_coeff  @atom:Na  @atom:C* lj/cut/coul/long 0.21805962 3.136988
	pair_coeff  @atom:Na  @atom:N* lj/cut/coul/long 0.19672316 3.031773
	pair_coeff  @atom:Na  @atom:O* lj/cut/coul/long 0.21874643 2.9170695
	pair_coeff  @atom:Na  @atom:F* lj/cut/coul/long 0.19039433 2.947093
	pair_coeff  @atom:Na  @atom:Al* lj/cut/coul/long 0.39370039 3.3471065
	pair_coeff  @atom:Na  @atom:Si* lj/cut/coul/long 0.39370039 3.302562
	pair_coeff  @atom:Na  @atom:P* lj/cut/coul/long 0.4 3.249108
	pair_coeff  @atom:Na  @atom:S* lj/cut/coul/long 0.4 3.195654
	pair_coeff  @atom:Na  @atom:Cl lj/cut/coul/long 0.37636419 3.1601515
	pair_coeff  @atom:Na  @atom:Ga* lj/cut/coul/long 0.4472136 3.3560155
	pair_coeff  @atom:Na  @atom:Ge* lj/cut/coul/long 0.4472136 3.302562
	pair_coeff  @atom:Na  @atom:As* lj/cut/coul/long 0.45276926 3.249108
	pair_coeff  @atom:Na  @atom:Se* lj/cut/coul/long 0.46368092 3.1956535
	pair_coeff  @atom:Na  @atom:Br lj/cut/coul/long 0.43011626 3.160018
	pair_coeff  @atom:Na  @atom:In* lj/cut/coul/long 0.52440442 3.4451055
	pair_coeff  @atom:Na  @atom:Sn* lj/cut/coul/long 0.52440442 3.3916515
	pair_coeff  @atom:Na  @atom:Sb* lj/cut/coul/long 0.52440442 3.3381975
	pair_coeff  @atom:Na  @atom:Te* lj/cut/coul/long 0.53385391 3.284744
	pair_coeff  @atom:Na  @atom:I lj/cut/coul/long 0.50497525 3.249108
	pair_coeff  @atom:Na  @atom:Na lj/cut/coul/long 0.5 2.800986
	pair_coeff  @atom:Ca  @atom:H lj/cut/coul/long 0.0275681 2.9698105
	pair_coeff  @atom:Ca  @atom:H_HB lj/cut/coul/long 0.00223607 2.9698105
	pair_coeff  @atom:Ca  @atom:H_B lj/cut/coul/long 0.0275681 2.9698105
	pair_coeff  @atom:Ca  @atom:B* lj/cut/coul/long 0.06892024 3.3373565
	pair_coeff  @atom:Ca  @atom:C* lj/cut/coul/long 0.06895651 3.283095
	pair_coeff  @atom:Ca  @atom:N* lj/cut/coul/long 0.06220932 3.17788
	pair_coeff  @atom:Ca  @atom:O* lj/cut/coul/long 0.06917369 3.0631765
	pair_coeff  @atom:Ca  @atom:F* lj/cut/coul/long 0.06020797 3.0932
	pair_coeff  @atom:Ca  @atom:Al* lj/cut/coul/long 0.124499 3.4932135
	pair_coeff  @atom:Ca  @atom:Si* lj/cut/coul/long 0.124499 3.448669
	pair_coeff  @atom:Ca  @atom:P* lj/cut/coul/long 0.12649111 3.395215
	pair_coeff  @atom:Ca  @atom:S* lj/cut/coul/long 0.12649111 3.341761
	pair_coeff  @atom:Ca  @atom:Cl lj/cut/coul/long 0.11901681 3.3062585
	pair_coeff  @atom:Ca  @atom:Ga* lj/cut/coul/long 0.14142136 3.5021225
	pair_coeff  @atom:Ca  @atom:Ge* lj/cut/coul/long 0.14142136 3.448669
	pair_coeff  @atom:Ca  @atom:As* lj/cut/coul/long 0.14317821 3.395215
	pair_coeff  @atom:Ca  @atom:Se* lj/cut/coul/long 0.14662878 3.3417605
	pair_coeff  @atom:Ca  @atom:Br lj/cut/coul/long 0.13601471 3.306125
	pair_coeff  @atom:Ca  @atom:In* lj/cut/coul/long 0.16583124 3.5912125
	pair_coeff  @atom:Ca  @atom:Sn* lj/cut/coul/long 0.16583124 3.5377585
	pair_coeff  @atom:Ca  @atom:Sb* lj/cut/coul/long 0.16583124 3.4843045
	pair_coeff  @atom:Ca  @atom:Te* lj/cut/coul/long 0.16881943 3.430851
	pair_coeff  @atom:Ca  @atom:I lj/cut/coul/long 0.15968719 3.395215
	pair_coeff  @atom:Ca  @atom:Na lj/cut/coul/long 0.15811388 2.947093
	pair_coeff  @atom:Ca  @atom:Ca lj/cut/coul/long 0.05 3.0932
	pair_coeff  @atom:Fe  @atom:H lj/cut/coul/long 0.02891366 3.4455505
	pair_coeff  @atom:Fe  @atom:H_HB lj/cut/coul/long 0.00234521 3.4455505
	pair_coeff  @atom:Fe  @atom:H_B lj/cut/coul/long 0.02891366 3.4455505
	pair_coeff  @atom:Fe  @atom:B* lj/cut/coul/long 0.07228416 3.8130965
	pair_coeff  @atom:Fe  @atom:C* lj/cut/coul/long 0.0723222 3.758835
	pair_coeff  @atom:Fe  @atom:N* lj/cut/coul/long 0.06524569 3.65362
	pair_coeff  @atom:Fe  @atom:O* lj/cut/coul/long 0.07254998 3.5389165
	pair_coeff  @atom:Fe  @atom:F* lj/cut/coul/long 0.06314665 3.56894
	pair_coeff  @atom:Fe  @atom:Al* lj/cut/coul/long 0.13057565 3.9689535
	pair_coeff  @atom:Fe  @atom:Si* lj/cut/coul/long 0.13057565 3.924409
	pair_coeff  @atom:Fe  @atom:P* lj/cut/coul/long 0.13266499 3.870955
	pair_coeff  @atom:Fe  @atom:S* lj/cut/coul/long 0.13266499 3.817501
	pair_coeff  @atom:Fe  @atom:Cl lj/cut/coul/long 0.12482588 3.7819985
	pair_coeff  @atom:Fe  @atom:Ga* lj/cut/coul/long 0.14832397 3.9778625
	pair_coeff  @atom:Fe  @atom:Ge* lj/cut/coul/long 0.14832397 3.924409
	pair_coeff  @atom:Fe  @atom:As* lj/cut/coul/long 0.15016657 3.870955
	pair_coeff  @atom:Fe  @atom:Se* lj/cut/coul/long 0.15378556 3.8175005
	pair_coeff  @atom:Fe  @atom:Br lj/cut/coul/long 0.14265343 3.781865
	pair_coeff  @atom:Fe  @atom:In* lj/cut/coul/long 0.17392527 4.0669525
	pair_coeff  @atom:Fe  @atom:Sn* lj/cut/coul/long 0.17392527 4.0134985
	pair_coeff  @atom:Fe  @atom:Sb* lj/cut/coul/long 0.17392527 3.9600445
	pair_coeff  @atom:Fe  @atom:Te* lj/cut/coul/long 0.17705931 3.906591
	pair_coeff  @atom:Fe  @atom:I lj/cut/coul/long 0.16748134 3.870955
	pair_coeff  @atom:Fe  @atom:Na lj/cut/coul/long 0.16583124 3.422833
	pair_coeff  @atom:Fe  @atom:Ca lj/cut/coul/long 0.05244044 3.56894
	pair_coeff  @atom:Fe  @atom:Fe lj/cut/coul/long 0.055 4.04468
	pair_coeff  @atom:Zn  @atom:H lj/cut/coul/long 0.02891366 3.4455505
	pair_coeff  @atom:Zn  @atom:H_HB lj/cut/coul/long 0.00234521 3.4455505
	pair_coeff  @atom:Zn  @atom:H_B lj/cut/coul/long 0.02891366 3.4455505
	pair_coeff  @atom:Zn  @atom:B* lj/cut/coul/long 0.07228416 3.8130965
	pair_coeff  @atom:Zn  @atom:C* lj/cut/coul/long 0.0723222 3.758835
	pair_coeff  @atom:Zn  @atom:N* lj/cut/coul/long 0.06524569 3.65362
	pair_coeff  @atom:Zn  @atom:O* lj/cut/coul/long 0.07254998 3.5389165
	pair_coeff  @atom:Zn  @atom:F* lj/cut/coul/long 0.06314665 3.56894
	pair_coeff  @atom:Zn  @atom:Al* lj/cut/coul/long 0.13057565 3.9689535
	pair_coeff  @atom:Zn  @atom:Si* lj/cut/coul/long 0.13057565 3.924409
	pair_coeff  @atom:Zn  @atom:P* lj/cut/coul/long 0.13266499 3.870955
	pair_coeff  @atom:Zn  @atom:S* lj/cut/coul/long 0.13266499 3.817501
	pair_coeff  @atom:Zn  @atom:Cl lj/cut/coul/long 0.12482588 3.7819985
	pair_coeff  @atom:Zn  @atom:Ga* lj/cut/coul/long 0.14832397 3.9778625
	pair_coeff  @atom:Zn  @atom:Ge* lj/cut/coul/long 0.14832397 3.924409
	pair_coeff  @atom:Zn  @atom:As* lj/cut/coul/long 0.15016657 3.870955
	pair_coeff  @atom:Zn  @atom:Se* lj/cut/coul/long 0.15378556 3.8175005
	pair_coeff  @atom:Zn  @atom:Br lj/cut/coul/long 0.14265343 3.781865
	pair_coeff  @atom:Zn  @atom:In* lj/cut/coul/long 0.17392527 4.0669525
	pair_coeff  @atom:Zn  @atom:Sn* lj/cut/coul/long 0.17392527 4.0134985
	pair_coeff  @atom:Zn  @atom:Sb* lj/cut/coul/long 0.17392527 3.9600445
	pair_coeff  @atom:Zn  @atom:Te* lj/cut/coul/long 0.17705931 3.906591
	pair_coeff  @atom:Zn  @atom:I lj/cut/coul/long 0.16748134 3.870955
	pair_coeff  @atom:Zn  @atom:Na lj/cut/coul/long 0.16583124 3.422833
	pair_coeff  @atom:Zn  @atom:Ca lj/cut/coul/long 0.05244044 3.56894
	pair_coeff  @atom:Zn  @atom:Fe lj/cut/coul/long 0.055 4.04468
	pair_coeff  @atom:Zn  @atom:Zn lj/cut/coul/long 0.055 4.04468